c book.min
c
p min 7 1200
c
n 1 100
n 6 50
n 7 -150
c
a 1 2 0 3 2
a 1 2 0 3 4
a 1 2 0 3 6
a 1 2 0 3 8
a 1 2 0 3 10
a 1 2 0 3 12
a 1 2 0 3 14
a 1 2 0 3 16
a 1 2 0 3 18
a 1 2 0 3 20
a 1 2 0 3 22
a 1 2 0 3 24
a 1 2 0 3 26
a 1 2 0 3 28
a 1 2 0 3 30
a 1 2 0 3 32
a 1 2 0 3 34
a 1 2 0 3 36
a 1 2 0 3 38
a 1 2 0 3 40
a 1 2 0 3 42
a 1 2 0 3 44
a 1 2 0 3 46
a 1 2 0 3 48
a 1 2 0 3 50
a 1 2 0 3 52
a 1 2 0 3 54
a 1 2 0 3 56
a 1 2 0 3 58
a 1 2 0 3 60
a 1 2 0 3 62
a 1 2 0 3 64
a 1 2 0 3 66
a 1 2 0 3 68
a 1 2 0 3 70
a 1 2 0 3 72
a 1 2 0 3 74
a 1 2 0 3 76
a 1 2 0 3 78
a 1 2 0 3 80
a 1 2 0 3 82
a 1 2 0 3 84
a 1 2 0 3 86
a 1 2 0 3 88
a 1 2 0 3 90
a 1 2 0 3 92
a 1 2 0 3 94
a 1 2 0 3 96
a 1 2 0 3 98
a 1 2 0 3 100
a 2 1 0 3 2
a 2 1 0 3 4
a 2 1 0 3 6
a 2 1 0 3 8
a 2 1 0 3 10
a 2 1 0 3 12
a 2 1 0 3 14
a 2 1 0 3 16
a 2 1 0 3 18
a 2 1 0 3 20
a 2 1 0 3 22
a 2 1 0 3 24
a 2 1 0 3 26
a 2 1 0 3 28
a 2 1 0 3 30
a 2 1 0 3 32
a 2 1 0 3 34
a 2 1 0 3 36
a 2 1 0 3 38
a 2 1 0 3 40
a 2 1 0 3 42
a 2 1 0 3 44
a 2 1 0 3 46
a 2 1 0 3 48
a 2 1 0 3 50
a 2 1 0 3 52
a 2 1 0 3 54
a 2 1 0 3 56
a 2 1 0 3 58
a 2 1 0 3 60
a 2 1 0 3 62
a 2 1 0 3 64
a 2 1 0 3 66
a 2 1 0 3 68
a 2 1 0 3 70
a 2 1 0 3 72
a 2 1 0 3 74
a 2 1 0 3 76
a 2 1 0 3 78
a 2 1 0 3 80
a 2 1 0 3 82
a 2 1 0 3 84
a 2 1 0 3 86
a 2 1 0 3 88
a 2 1 0 3 90
a 2 1 0 3 92
a 2 1 0 3 94
a 2 1 0 3 96
a 2 1 0 3 98
a 2 1 0 3 100
c
a 1 3 0 3 2
a 1 3 0 3 4
a 1 3 0 3 6
a 1 3 0 3 8
a 1 3 0 3 10
a 1 3 0 3 12
a 1 3 0 3 14
a 1 3 0 3 16
a 1 3 0 3 18
a 1 3 0 3 20
a 1 3 0 3 22
a 1 3 0 3 24
a 1 3 0 3 26
a 1 3 0 3 28
a 1 3 0 3 30
a 1 3 0 3 32
a 1 3 0 3 34
a 1 3 0 3 36
a 1 3 0 3 38
a 1 3 0 3 40
a 1 3 0 3 42
a 1 3 0 3 44
a 1 3 0 3 46
a 1 3 0 3 48
a 1 3 0 3 50
a 1 3 0 3 52
a 1 3 0 3 54
a 1 3 0 3 56
a 1 3 0 3 58
a 1 3 0 3 60
a 1 3 0 3 62
a 1 3 0 3 64
a 1 3 0 3 66
a 1 3 0 3 68
a 1 3 0 3 70
a 1 3 0 3 72
a 1 3 0 3 74
a 1 3 0 3 76
a 1 3 0 3 78
a 1 3 0 3 80
a 1 3 0 3 82
a 1 3 0 3 84
a 1 3 0 3 86
a 1 3 0 3 88
a 1 3 0 3 90
a 1 3 0 3 92
a 1 3 0 3 94
a 1 3 0 3 96
a 1 3 0 3 98
a 1 3 0 3 100
a 3 1 0 3 2
a 3 1 0 3 4
a 3 1 0 3 6
a 3 1 0 3 8
a 3 1 0 3 10
a 3 1 0 3 12
a 3 1 0 3 14
a 3 1 0 3 16
a 3 1 0 3 18
a 3 1 0 3 20
a 3 1 0 3 22
a 3 1 0 3 24
a 3 1 0 3 26
a 3 1 0 3 28
a 3 1 0 3 30
a 3 1 0 3 32
a 3 1 0 3 34
a 3 1 0 3 36
a 3 1 0 3 38
a 3 1 0 3 40
a 3 1 0 3 42
a 3 1 0 3 44
a 3 1 0 3 46
a 3 1 0 3 48
a 3 1 0 3 50
a 3 1 0 3 52
a 3 1 0 3 54
a 3 1 0 3 56
a 3 1 0 3 58
a 3 1 0 3 60
a 3 1 0 3 62
a 3 1 0 3 64
a 3 1 0 3 66
a 3 1 0 3 68
a 3 1 0 3 70
a 3 1 0 3 72
a 3 1 0 3 74
a 3 1 0 3 76
a 3 1 0 3 78
a 3 1 0 3 80
a 3 1 0 3 82
a 3 1 0 3 84
a 3 1 0 3 86
a 3 1 0 3 88
a 3 1 0 3 90
a 3 1 0 3 92
a 3 1 0 3 94
a 3 1 0 3 96
a 3 1 0 3 98
a 3 1 0 3 100
c
a 2 3 0 3 2
a 2 3 0 3 4
a 2 3 0 3 6
a 2 3 0 3 8
a 2 3 0 3 10
a 2 3 0 3 12
a 2 3 0 3 14
a 2 3 0 3 16
a 2 3 0 3 18
a 2 3 0 3 20
a 2 3 0 3 22
a 2 3 0 3 24
a 2 3 0 3 26
a 2 3 0 3 28
a 2 3 0 3 30
a 2 3 0 3 32
a 2 3 0 3 34
a 2 3 0 3 36
a 2 3 0 3 38
a 2 3 0 3 40
a 2 3 0 3 42
a 2 3 0 3 44
a 2 3 0 3 46
a 2 3 0 3 48
a 2 3 0 3 50
a 2 3 0 3 52
a 2 3 0 3 54
a 2 3 0 3 56
a 2 3 0 3 58
a 2 3 0 3 60
a 2 3 0 3 62
a 2 3 0 3 64
a 2 3 0 3 66
a 2 3 0 3 68
a 2 3 0 3 70
a 2 3 0 3 72
a 2 3 0 3 74
a 2 3 0 3 76
a 2 3 0 3 78
a 2 3 0 3 80
a 2 3 0 3 82
a 2 3 0 3 84
a 2 3 0 3 86
a 2 3 0 3 88
a 2 3 0 3 90
a 2 3 0 3 92
a 2 3 0 3 94
a 2 3 0 3 96
a 2 3 0 3 98
a 2 3 0 3 100
a 3 2 0 3 2
a 3 2 0 3 4
a 3 2 0 3 6
a 3 2 0 3 8
a 3 2 0 3 10
a 3 2 0 3 12
a 3 2 0 3 14
a 3 2 0 3 16
a 3 2 0 3 18
a 3 2 0 3 20
a 3 2 0 3 22
a 3 2 0 3 24
a 3 2 0 3 26
a 3 2 0 3 28
a 3 2 0 3 30
a 3 2 0 3 32
a 3 2 0 3 34
a 3 2 0 3 36
a 3 2 0 3 38
a 3 2 0 3 40
a 3 2 0 3 42
a 3 2 0 3 44
a 3 2 0 3 46
a 3 2 0 3 48
a 3 2 0 3 50
a 3 2 0 3 52
a 3 2 0 3 54
a 3 2 0 3 56
a 3 2 0 3 58
a 3 2 0 3 60
a 3 2 0 3 62
a 3 2 0 3 64
a 3 2 0 3 66
a 3 2 0 3 68
a 3 2 0 3 70
a 3 2 0 3 72
a 3 2 0 3 74
a 3 2 0 3 76
a 3 2 0 3 78
a 3 2 0 3 80
a 3 2 0 3 82
a 3 2 0 3 84
a 3 2 0 3 86
a 3 2 0 3 88
a 3 2 0 3 90
a 3 2 0 3 92
a 3 2 0 3 94
a 3 2 0 3 96
a 3 2 0 3 98
a 3 2 0 3 100
c
a 2 4 0 3 2
a 2 4 0 3 4
a 2 4 0 3 6
a 2 4 0 3 8
a 2 4 0 3 10
a 2 4 0 3 12
a 2 4 0 3 14
a 2 4 0 3 16
a 2 4 0 3 18
a 2 4 0 3 20
a 2 4 0 3 22
a 2 4 0 3 24
a 2 4 0 3 26
a 2 4 0 3 28
a 2 4 0 3 30
a 2 4 0 3 32
a 2 4 0 3 34
a 2 4 0 3 36
a 2 4 0 3 38
a 2 4 0 3 40
a 2 4 0 3 42
a 2 4 0 3 44
a 2 4 0 3 46
a 2 4 0 3 48
a 2 4 0 3 50
a 2 4 0 3 52
a 2 4 0 3 54
a 2 4 0 3 56
a 2 4 0 3 58
a 2 4 0 3 60
a 2 4 0 3 62
a 2 4 0 3 64
a 2 4 0 3 66
a 2 4 0 3 68
a 2 4 0 3 70
a 2 4 0 3 72
a 2 4 0 3 74
a 2 4 0 3 76
a 2 4 0 3 78
a 2 4 0 3 80
a 2 4 0 3 82
a 2 4 0 3 84
a 2 4 0 3 86
a 2 4 0 3 88
a 2 4 0 3 90
a 2 4 0 3 92
a 2 4 0 3 94
a 2 4 0 3 96
a 2 4 0 3 98
a 2 4 0 3 100
a 4 2 0 3 2
a 4 2 0 3 4
a 4 2 0 3 6
a 4 2 0 3 8
a 4 2 0 3 10
a 4 2 0 3 12
a 4 2 0 3 14
a 4 2 0 3 16
a 4 2 0 3 18
a 4 2 0 3 20
a 4 2 0 3 22
a 4 2 0 3 24
a 4 2 0 3 26
a 4 2 0 3 28
a 4 2 0 3 30
a 4 2 0 3 32
a 4 2 0 3 34
a 4 2 0 3 36
a 4 2 0 3 38
a 4 2 0 3 40
a 4 2 0 3 42
a 4 2 0 3 44
a 4 2 0 3 46
a 4 2 0 3 48
a 4 2 0 3 50
a 4 2 0 3 52
a 4 2 0 3 54
a 4 2 0 3 56
a 4 2 0 3 58
a 4 2 0 3 60
a 4 2 0 3 62
a 4 2 0 3 64
a 4 2 0 3 66
a 4 2 0 3 68
a 4 2 0 3 70
a 4 2 0 3 72
a 4 2 0 3 74
a 4 2 0 3 76
a 4 2 0 3 78
a 4 2 0 3 80
a 4 2 0 3 82
a 4 2 0 3 84
a 4 2 0 3 86
a 4 2 0 3 88
a 4 2 0 3 90
a 4 2 0 3 92
a 4 2 0 3 94
a 4 2 0 3 96
a 4 2 0 3 98
a 4 2 0 3 100
c
a 2 7 0 3 2
a 2 7 0 3 4
a 2 7 0 3 6
a 2 7 0 3 8
a 2 7 0 3 10
a 2 7 0 3 12
a 2 7 0 3 14
a 2 7 0 3 16
a 2 7 0 3 18
a 2 7 0 3 20
a 2 7 0 3 22
a 2 7 0 3 24
a 2 7 0 3 26
a 2 7 0 3 28
a 2 7 0 3 30
a 2 7 0 3 32
a 2 7 0 3 34
a 2 7 0 3 36
a 2 7 0 3 38
a 2 7 0 3 40
a 2 7 0 3 42
a 2 7 0 3 44
a 2 7 0 3 46
a 2 7 0 3 48
a 2 7 0 3 50
a 2 7 0 3 52
a 2 7 0 3 54
a 2 7 0 3 56
a 2 7 0 3 58
a 2 7 0 3 60
a 2 7 0 3 62
a 2 7 0 3 64
a 2 7 0 3 66
a 2 7 0 3 68
a 2 7 0 3 70
a 2 7 0 3 72
a 2 7 0 3 74
a 2 7 0 3 76
a 2 7 0 3 78
a 2 7 0 3 80
a 2 7 0 3 82
a 2 7 0 3 84
a 2 7 0 3 86
a 2 7 0 3 88
a 2 7 0 3 90
a 2 7 0 3 92
a 2 7 0 3 94
a 2 7 0 3 96
a 2 7 0 3 98
a 2 7 0 3 100
a 7 2 0 3 2
a 7 2 0 3 4
a 7 2 0 3 6
a 7 2 0 3 8
a 7 2 0 3 10
a 7 2 0 3 12
a 7 2 0 3 14
a 7 2 0 3 16
a 7 2 0 3 18
a 7 2 0 3 20
a 7 2 0 3 22
a 7 2 0 3 24
a 7 2 0 3 26
a 7 2 0 3 28
a 7 2 0 3 30
a 7 2 0 3 32
a 7 2 0 3 34
a 7 2 0 3 36
a 7 2 0 3 38
a 7 2 0 3 40
a 7 2 0 3 42
a 7 2 0 3 44
a 7 2 0 3 46
a 7 2 0 3 48
a 7 2 0 3 50
a 7 2 0 3 52
a 7 2 0 3 54
a 7 2 0 3 56
a 7 2 0 3 58
a 7 2 0 3 60
a 7 2 0 3 62
a 7 2 0 3 64
a 7 2 0 3 66
a 7 2 0 3 68
a 7 2 0 3 70
a 7 2 0 3 72
a 7 2 0 3 74
a 7 2 0 3 76
a 7 2 0 3 78
a 7 2 0 3 80
a 7 2 0 3 82
a 7 2 0 3 84
a 7 2 0 3 86
a 7 2 0 3 88
a 7 2 0 3 90
a 7 2 0 3 92
a 7 2 0 3 94
a 7 2 0 3 96
a 7 2 0 3 98
a 7 2 0 3 100
c
a 3 5 0 3 2
a 3 5 0 3 4
a 3 5 0 3 6
a 3 5 0 3 8
a 3 5 0 3 10
a 3 5 0 3 12
a 3 5 0 3 14
a 3 5 0 3 16
a 3 5 0 3 18
a 3 5 0 3 20
a 3 5 0 3 22
a 3 5 0 3 24
a 3 5 0 3 26
a 3 5 0 3 28
a 3 5 0 3 30
a 3 5 0 3 32
a 3 5 0 3 34
a 3 5 0 3 36
a 3 5 0 3 38
a 3 5 0 3 40
a 3 5 0 3 42
a 3 5 0 3 44
a 3 5 0 3 46
a 3 5 0 3 48
a 3 5 0 3 50
a 3 5 0 3 52
a 3 5 0 3 54
a 3 5 0 3 56
a 3 5 0 3 58
a 3 5 0 3 60
a 3 5 0 3 62
a 3 5 0 3 64
a 3 5 0 3 66
a 3 5 0 3 68
a 3 5 0 3 70
a 3 5 0 3 72
a 3 5 0 3 74
a 3 5 0 3 76
a 3 5 0 3 78
a 3 5 0 3 80
a 3 5 0 3 82
a 3 5 0 3 84
a 3 5 0 3 86
a 3 5 0 3 88
a 3 5 0 3 90
a 3 5 0 3 92
a 3 5 0 3 94
a 3 5 0 3 96
a 3 5 0 3 98
a 3 5 0 3 100
a 5 3 0 3 2
a 5 3 0 3 4
a 5 3 0 3 6
a 5 3 0 3 8
a 5 3 0 3 10
a 5 3 0 3 12
a 5 3 0 3 14
a 5 3 0 3 16
a 5 3 0 3 18
a 5 3 0 3 20
a 5 3 0 3 22
a 5 3 0 3 24
a 5 3 0 3 26
a 5 3 0 3 28
a 5 3 0 3 30
a 5 3 0 3 32
a 5 3 0 3 34
a 5 3 0 3 36
a 5 3 0 3 38
a 5 3 0 3 40
a 5 3 0 3 42
a 5 3 0 3 44
a 5 3 0 3 46
a 5 3 0 3 48
a 5 3 0 3 50
a 5 3 0 3 52
a 5 3 0 3 54
a 5 3 0 3 56
a 5 3 0 3 58
a 5 3 0 3 60
a 5 3 0 3 62
a 5 3 0 3 64
a 5 3 0 3 66
a 5 3 0 3 68
a 5 3 0 3 70
a 5 3 0 3 72
a 5 3 0 3 74
a 5 3 0 3 76
a 5 3 0 3 78
a 5 3 0 3 80
a 5 3 0 3 82
a 5 3 0 3 84
a 5 3 0 3 86
a 5 3 0 3 88
a 5 3 0 3 90
a 5 3 0 3 92
a 5 3 0 3 94
a 5 3 0 3 96
a 5 3 0 3 98
a 5 3 0 3 100
c
a 3 7 0 3 2
a 3 7 0 3 4
a 3 7 0 3 6
a 3 7 0 3 8
a 3 7 0 3 10
a 3 7 0 3 12
a 3 7 0 3 14
a 3 7 0 3 16
a 3 7 0 3 18
a 3 7 0 3 20
a 3 7 0 3 22
a 3 7 0 3 24
a 3 7 0 3 26
a 3 7 0 3 28
a 3 7 0 3 30
a 3 7 0 3 32
a 3 7 0 3 34
a 3 7 0 3 36
a 3 7 0 3 38
a 3 7 0 3 40
a 3 7 0 3 42
a 3 7 0 3 44
a 3 7 0 3 46
a 3 7 0 3 48
a 3 7 0 3 50
a 3 7 0 3 52
a 3 7 0 3 54
a 3 7 0 3 56
a 3 7 0 3 58
a 3 7 0 3 60
a 3 7 0 3 62
a 3 7 0 3 64
a 3 7 0 3 66
a 3 7 0 3 68
a 3 7 0 3 70
a 3 7 0 3 72
a 3 7 0 3 74
a 3 7 0 3 76
a 3 7 0 3 78
a 3 7 0 3 80
a 3 7 0 3 82
a 3 7 0 3 84
a 3 7 0 3 86
a 3 7 0 3 88
a 3 7 0 3 90
a 3 7 0 3 92
a 3 7 0 3 94
a 3 7 0 3 96
a 3 7 0 3 98
a 3 7 0 3 100
a 7 3 0 3 2
a 7 3 0 3 4
a 7 3 0 3 6
a 7 3 0 3 8
a 7 3 0 3 10
a 7 3 0 3 12
a 7 3 0 3 14
a 7 3 0 3 16
a 7 3 0 3 18
a 7 3 0 3 20
a 7 3 0 3 22
a 7 3 0 3 24
a 7 3 0 3 26
a 7 3 0 3 28
a 7 3 0 3 30
a 7 3 0 3 32
a 7 3 0 3 34
a 7 3 0 3 36
a 7 3 0 3 38
a 7 3 0 3 40
a 7 3 0 3 42
a 7 3 0 3 44
a 7 3 0 3 46
a 7 3 0 3 48
a 7 3 0 3 50
a 7 3 0 3 52
a 7 3 0 3 54
a 7 3 0 3 56
a 7 3 0 3 58
a 7 3 0 3 60
a 7 3 0 3 62
a 7 3 0 3 64
a 7 3 0 3 66
a 7 3 0 3 68
a 7 3 0 3 70
a 7 3 0 3 72
a 7 3 0 3 74
a 7 3 0 3 76
a 7 3 0 3 78
a 7 3 0 3 80
a 7 3 0 3 82
a 7 3 0 3 84
a 7 3 0 3 86
a 7 3 0 3 88
a 7 3 0 3 90
a 7 3 0 3 92
a 7 3 0 3 94
a 7 3 0 3 96
a 7 3 0 3 98
a 7 3 0 3 100
c
a 4 5 0 3 2
a 4 5 0 3 4
a 4 5 0 3 6
a 4 5 0 3 8
a 4 5 0 3 10
a 4 5 0 3 12
a 4 5 0 3 14
a 4 5 0 3 16
a 4 5 0 3 18
a 4 5 0 3 20
a 4 5 0 3 22
a 4 5 0 3 24
a 4 5 0 3 26
a 4 5 0 3 28
a 4 5 0 3 30
a 4 5 0 3 32
a 4 5 0 3 34
a 4 5 0 3 36
a 4 5 0 3 38
a 4 5 0 3 40
a 4 5 0 3 42
a 4 5 0 3 44
a 4 5 0 3 46
a 4 5 0 3 48
a 4 5 0 3 50
a 4 5 0 3 52
a 4 5 0 3 54
a 4 5 0 3 56
a 4 5 0 3 58
a 4 5 0 3 60
a 4 5 0 3 62
a 4 5 0 3 64
a 4 5 0 3 66
a 4 5 0 3 68
a 4 5 0 3 70
a 4 5 0 3 72
a 4 5 0 3 74
a 4 5 0 3 76
a 4 5 0 3 78
a 4 5 0 3 80
a 4 5 0 3 82
a 4 5 0 3 84
a 4 5 0 3 86
a 4 5 0 3 88
a 4 5 0 3 90
a 4 5 0 3 92
a 4 5 0 3 94
a 4 5 0 3 96
a 4 5 0 3 98
a 4 5 0 3 100
a 5 4 0 3 2
a 5 4 0 3 4
a 5 4 0 3 6
a 5 4 0 3 8
a 5 4 0 3 10
a 5 4 0 3 12
a 5 4 0 3 14
a 5 4 0 3 16
a 5 4 0 3 18
a 5 4 0 3 20
a 5 4 0 3 22
a 5 4 0 3 24
a 5 4 0 3 26
a 5 4 0 3 28
a 5 4 0 3 30
a 5 4 0 3 32
a 5 4 0 3 34
a 5 4 0 3 36
a 5 4 0 3 38
a 5 4 0 3 40
a 5 4 0 3 42
a 5 4 0 3 44
a 5 4 0 3 46
a 5 4 0 3 48
a 5 4 0 3 50
a 5 4 0 3 52
a 5 4 0 3 54
a 5 4 0 3 56
a 5 4 0 3 58
a 5 4 0 3 60
a 5 4 0 3 62
a 5 4 0 3 64
a 5 4 0 3 66
a 5 4 0 3 68
a 5 4 0 3 70
a 5 4 0 3 72
a 5 4 0 3 74
a 5 4 0 3 76
a 5 4 0 3 78
a 5 4 0 3 80
a 5 4 0 3 82
a 5 4 0 3 84
a 5 4 0 3 86
a 5 4 0 3 88
a 5 4 0 3 90
a 5 4 0 3 92
a 5 4 0 3 94
a 5 4 0 3 96
a 5 4 0 3 98
a 5 4 0 3 100
c
a 4 6 0 3 2
a 4 6 0 3 4
a 4 6 0 3 6
a 4 6 0 3 8
a 4 6 0 3 10
a 4 6 0 3 12
a 4 6 0 3 14
a 4 6 0 3 16
a 4 6 0 3 18
a 4 6 0 3 20
a 4 6 0 3 22
a 4 6 0 3 24
a 4 6 0 3 26
a 4 6 0 3 28
a 4 6 0 3 30
a 4 6 0 3 32
a 4 6 0 3 34
a 4 6 0 3 36
a 4 6 0 3 38
a 4 6 0 3 40
a 4 6 0 3 42
a 4 6 0 3 44
a 4 6 0 3 46
a 4 6 0 3 48
a 4 6 0 3 50
a 4 6 0 3 52
a 4 6 0 3 54
a 4 6 0 3 56
a 4 6 0 3 58
a 4 6 0 3 60
a 4 6 0 3 62
a 4 6 0 3 64
a 4 6 0 3 66
a 4 6 0 3 68
a 4 6 0 3 70
a 4 6 0 3 72
a 4 6 0 3 74
a 4 6 0 3 76
a 4 6 0 3 78
a 4 6 0 3 80
a 4 6 0 3 82
a 4 6 0 3 84
a 4 6 0 3 86
a 4 6 0 3 88
a 4 6 0 3 90
a 4 6 0 3 92
a 4 6 0 3 94
a 4 6 0 3 96
a 4 6 0 3 98
a 4 6 0 3 100
a 6 4 0 3 2
a 6 4 0 3 4
a 6 4 0 3 6
a 6 4 0 3 8
a 6 4 0 3 10
a 6 4 0 3 12
a 6 4 0 3 14
a 6 4 0 3 16
a 6 4 0 3 18
a 6 4 0 3 20
a 6 4 0 3 22
a 6 4 0 3 24
a 6 4 0 3 26
a 6 4 0 3 28
a 6 4 0 3 30
a 6 4 0 3 32
a 6 4 0 3 34
a 6 4 0 3 36
a 6 4 0 3 38
a 6 4 0 3 40
a 6 4 0 3 42
a 6 4 0 3 44
a 6 4 0 3 46
a 6 4 0 3 48
a 6 4 0 3 50
a 6 4 0 3 52
a 6 4 0 3 54
a 6 4 0 3 56
a 6 4 0 3 58
a 6 4 0 3 60
a 6 4 0 3 62
a 6 4 0 3 64
a 6 4 0 3 66
a 6 4 0 3 68
a 6 4 0 3 70
a 6 4 0 3 72
a 6 4 0 3 74
a 6 4 0 3 76
a 6 4 0 3 78
a 6 4 0 3 80
a 6 4 0 3 82
a 6 4 0 3 84
a 6 4 0 3 86
a 6 4 0 3 88
a 6 4 0 3 90
a 6 4 0 3 92
a 6 4 0 3 94
a 6 4 0 3 96
a 6 4 0 3 98
a 6 4 0 3 100
c
a 4 7 0 3 2
a 4 7 0 3 4
a 4 7 0 3 6
a 4 7 0 3 8
a 4 7 0 3 10
a 4 7 0 3 12
a 4 7 0 3 14
a 4 7 0 3 16
a 4 7 0 3 18
a 4 7 0 3 20
a 4 7 0 3 22
a 4 7 0 3 24
a 4 7 0 3 26
a 4 7 0 3 28
a 4 7 0 3 30
a 4 7 0 3 32
a 4 7 0 3 34
a 4 7 0 3 36
a 4 7 0 3 38
a 4 7 0 3 40
a 4 7 0 3 42
a 4 7 0 3 44
a 4 7 0 3 46
a 4 7 0 3 48
a 4 7 0 3 50
a 4 7 0 3 52
a 4 7 0 3 54
a 4 7 0 3 56
a 4 7 0 3 58
a 4 7 0 3 60
a 4 7 0 3 62
a 4 7 0 3 64
a 4 7 0 3 66
a 4 7 0 3 68
a 4 7 0 3 70
a 4 7 0 3 72
a 4 7 0 3 74
a 4 7 0 3 76
a 4 7 0 3 78
a 4 7 0 3 80
a 4 7 0 3 82
a 4 7 0 3 84
a 4 7 0 3 86
a 4 7 0 3 88
a 4 7 0 3 90
a 4 7 0 3 92
a 4 7 0 3 94
a 4 7 0 3 96
a 4 7 0 3 98
a 4 7 0 3 100
a 7 4 0 3 2
a 7 4 0 3 4
a 7 4 0 3 6
a 7 4 0 3 8
a 7 4 0 3 10
a 7 4 0 3 12
a 7 4 0 3 14
a 7 4 0 3 16
a 7 4 0 3 18
a 7 4 0 3 20
a 7 4 0 3 22
a 7 4 0 3 24
a 7 4 0 3 26
a 7 4 0 3 28
a 7 4 0 3 30
a 7 4 0 3 32
a 7 4 0 3 34
a 7 4 0 3 36
a 7 4 0 3 38
a 7 4 0 3 40
a 7 4 0 3 42
a 7 4 0 3 44
a 7 4 0 3 46
a 7 4 0 3 48
a 7 4 0 3 50
a 7 4 0 3 52
a 7 4 0 3 54
a 7 4 0 3 56
a 7 4 0 3 58
a 7 4 0 3 60
a 7 4 0 3 62
a 7 4 0 3 64
a 7 4 0 3 66
a 7 4 0 3 68
a 7 4 0 3 70
a 7 4 0 3 72
a 7 4 0 3 74
a 7 4 0 3 76
a 7 4 0 3 78
a 7 4 0 3 80
a 7 4 0 3 82
a 7 4 0 3 84
a 7 4 0 3 86
a 7 4 0 3 88
a 7 4 0 3 90
a 7 4 0 3 92
a 7 4 0 3 94
a 7 4 0 3 96
a 7 4 0 3 98
a 7 4 0 3 100
c
a 5 6 0 3 2
a 5 6 0 3 4
a 5 6 0 3 6
a 5 6 0 3 8
a 5 6 0 3 10
a 5 6 0 3 12
a 5 6 0 3 14
a 5 6 0 3 16
a 5 6 0 3 18
a 5 6 0 3 20
a 5 6 0 3 22
a 5 6 0 3 24
a 5 6 0 3 26
a 5 6 0 3 28
a 5 6 0 3 30
a 5 6 0 3 32
a 5 6 0 3 34
a 5 6 0 3 36
a 5 6 0 3 38
a 5 6 0 3 40
a 5 6 0 3 42
a 5 6 0 3 44
a 5 6 0 3 46
a 5 6 0 3 48
a 5 6 0 3 50
a 5 6 0 3 52
a 5 6 0 3 54
a 5 6 0 3 56
a 5 6 0 3 58
a 5 6 0 3 60
a 5 6 0 3 62
a 5 6 0 3 64
a 5 6 0 3 66
a 5 6 0 3 68
a 5 6 0 3 70
a 5 6 0 3 72
a 5 6 0 3 74
a 5 6 0 3 76
a 5 6 0 3 78
a 5 6 0 3 80
a 5 6 0 3 82
a 5 6 0 3 84
a 5 6 0 3 86
a 5 6 0 3 88
a 5 6 0 3 90
a 5 6 0 3 92
a 5 6 0 3 94
a 5 6 0 3 96
a 5 6 0 3 98
a 5 6 0 3 100
a 6 5 0 3 2
a 6 5 0 3 4
a 6 5 0 3 6
a 6 5 0 3 8
a 6 5 0 3 10
a 6 5 0 3 12
a 6 5 0 3 14
a 6 5 0 3 16
a 6 5 0 3 18
a 6 5 0 3 20
a 6 5 0 3 22
a 6 5 0 3 24
a 6 5 0 3 26
a 6 5 0 3 28
a 6 5 0 3 30
a 6 5 0 3 32
a 6 5 0 3 34
a 6 5 0 3 36
a 6 5 0 3 38
a 6 5 0 3 40
a 6 5 0 3 42
a 6 5 0 3 44
a 6 5 0 3 46
a 6 5 0 3 48
a 6 5 0 3 50
a 6 5 0 3 52
a 6 5 0 3 54
a 6 5 0 3 56
a 6 5 0 3 58
a 6 5 0 3 60
a 6 5 0 3 62
a 6 5 0 3 64
a 6 5 0 3 66
a 6 5 0 3 68
a 6 5 0 3 70
a 6 5 0 3 72
a 6 5 0 3 74
a 6 5 0 3 76
a 6 5 0 3 78
a 6 5 0 3 80
a 6 5 0 3 82
a 6 5 0 3 84
a 6 5 0 3 86
a 6 5 0 3 88
a 6 5 0 3 90
a 6 5 0 3 92
a 6 5 0 3 94
a 6 5 0 3 96
a 6 5 0 3 98
a 6 5 0 3 100
c
a 5 7 0 3 2
a 5 7 0 3 4
a 5 7 0 3 6
a 5 7 0 3 8
a 5 7 0 3 10
a 5 7 0 3 12
a 5 7 0 3 14
a 5 7 0 3 16
a 5 7 0 3 18
a 5 7 0 3 20
a 5 7 0 3 22
a 5 7 0 3 24
a 5 7 0 3 26
a 5 7 0 3 28
a 5 7 0 3 30
a 5 7 0 3 32
a 5 7 0 3 34
a 5 7 0 3 36
a 5 7 0 3 38
a 5 7 0 3 40
a 5 7 0 3 42
a 5 7 0 3 44
a 5 7 0 3 46
a 5 7 0 3 48
a 5 7 0 3 50
a 5 7 0 3 52
a 5 7 0 3 54
a 5 7 0 3 56
a 5 7 0 3 58
a 5 7 0 3 60
a 5 7 0 3 62
a 5 7 0 3 64
a 5 7 0 3 66
a 5 7 0 3 68
a 5 7 0 3 70
a 5 7 0 3 72
a 5 7 0 3 74
a 5 7 0 3 76
a 5 7 0 3 78
a 5 7 0 3 80
a 5 7 0 3 82
a 5 7 0 3 84
a 5 7 0 3 86
a 5 7 0 3 88
a 5 7 0 3 90
a 5 7 0 3 92
a 5 7 0 3 94
a 5 7 0 3 96
a 5 7 0 3 98
a 5 7 0 3 100
a 7 5 0 3 2
a 7 5 0 3 4
a 7 5 0 3 6
a 7 5 0 3 8
a 7 5 0 3 10
a 7 5 0 3 12
a 7 5 0 3 14
a 7 5 0 3 16
a 7 5 0 3 18
a 7 5 0 3 20
a 7 5 0 3 22
a 7 5 0 3 24
a 7 5 0 3 26
a 7 5 0 3 28
a 7 5 0 3 30
a 7 5 0 3 32
a 7 5 0 3 34
a 7 5 0 3 36
a 7 5 0 3 38
a 7 5 0 3 40
a 7 5 0 3 42
a 7 5 0 3 44
a 7 5 0 3 46
a 7 5 0 3 48
a 7 5 0 3 50
a 7 5 0 3 52
a 7 5 0 3 54
a 7 5 0 3 56
a 7 5 0 3 58
a 7 5 0 3 60
a 7 5 0 3 62
a 7 5 0 3 64
a 7 5 0 3 66
a 7 5 0 3 68
a 7 5 0 3 70
a 7 5 0 3 72
a 7 5 0 3 74
a 7 5 0 3 76
a 7 5 0 3 78
a 7 5 0 3 80
a 7 5 0 3 82
a 7 5 0 3 84
a 7 5 0 3 86
a 7 5 0 3 88
a 7 5 0 3 90
a 7 5 0 3 92
a 7 5 0 3 94
a 7 5 0 3 96
a 7 5 0 3 98
a 7 5 0 3 100
c
c eof
